1299503
19,62,2,82,24,44,4,0,34,97,100,81,33,51,28,106,15,93,80,45,1,58,83,50,31,42,84,94,60,5,29,102,55,91,73,47,79,16,20,12,54,67,39,7,27,35,11,59,64,87,6,17,49,75,72,86,61,18,41,105,77,32,107,95,92,104,98,70,46,96,90,88,10,48,40,37,30,38,13,69,68,26,85,74,56,71,25,36,8,76,65,9,108,89,23,63,21,103,57,53,101,99,52,14,22,66,3,78,43
